(declare-fun _for_it_13 () Int)
(declare-fun _if_cond_2_val () (Array Int Int))
(declare-fun _if_cond_3_val () (Array Int Int))
(declare-fun _if_cond_4_val () (Array Int Int))

(assert (forall ((_for_it_14 Int) (kfdia Int) (kidia Int) (klev Int) (klon Int) (ncldtop Int))
  (=>
    (and
      (not (or (exists ((_for_it_15_0 Int)(_for_it_15_1 Int)) (and (<= _for_it_15_1 (+ kfdia (- 1))) (<= (+ kidia (- 1)) _for_it_15_1) (<= _for_it_15_0 (+ kfdia (- 1))) (<= (+ kidia (- 1)) _for_it_15_0) (= (select _if_cond_2_val (- (+ (* _for_it_13 (- kfdia kidia) (+ klev (- 1))) _for_it_15_1 (* (+ _for_it_14 1) (- kfdia kidia)) 1) kidia)) 1) (= (select _if_cond_2_val (- (+ (* _for_it_13 (- kfdia kidia) (+ klev (- 1))) _for_it_15_0 (* _for_it_14 (- kfdia kidia)) 1) kidia)) 1) (= (select _if_cond_3_val (- (+ (* _for_it_13 (- kfdia kidia) (+ klev (- 1))) _for_it_15_1 (* (+ _for_it_14 1) (- kfdia kidia)) 1) kidia)) 1))) (exists ((_for_it_15_0 Int)(_for_it_15_1 Int)) (and (= (select _if_cond_4_val (- (+ (* _for_it_13 (- kfdia kidia) (+ klev (- 1))) _for_it_15_1 (* (+ _for_it_14 1) (- kfdia kidia)) 1) kidia)) 1) (<= _for_it_15_1 (+ kfdia (- 1))) (<= (+ kidia (- 1)) _for_it_15_1) (<= _for_it_15_0 (+ kfdia (- 1))) (<= (+ kidia (- 1)) _for_it_15_0) (= (select _if_cond_2_val (- (+ (* _for_it_13 (- kfdia kidia) (+ klev (- 1))) _for_it_15_1 (* (+ _for_it_14 1) (- kfdia kidia)) 1) kidia)) 1) (= (select _if_cond_2_val (- (+ (* _for_it_13 (- kfdia kidia) (+ klev (- 1))) _for_it_15_0 (* _for_it_14 (- kfdia kidia)) 1) kidia)) 1))) (exists ((_for_it_15_0 Int)(_for_it_15_1 Int)) (and (= _for_it_13 4) (<= _for_it_15_1 (+ kfdia (- 1))) (<= (+ kidia (- 1)) _for_it_15_1) (= _for_it_15_0 _for_it_15_1) (<= _for_it_15_0 (+ kfdia (- 1))) (<= (+ kidia (- 1)) _for_it_15_0) (= (select _if_cond_2_val (- (+ (* _for_it_13 (- kfdia kidia) (+ klev (- 1))) _for_it_15_1 (* (+ _for_it_14 1) (- kfdia kidia)) 1) kidia)) 1) (= (select _if_cond_2_val (- (+ (* _for_it_13 (- kfdia kidia) (+ klev (- 1))) _for_it_15_0 (* _for_it_14 (- kfdia kidia)) 1) kidia)) 1) (= _for_it_14 (+ _for_it_14 1)))) (exists ((_for_it_15_0 Int)(_for_it_15_1 Int)) (and (<= _for_it_15_1 (+ kfdia (- 1))) (<= (+ kidia (- 1)) _for_it_15_1) (<= _for_it_15_0 (+ kfdia (- 1))) (<= (+ kidia (- 1)) _for_it_15_0) (= (select _if_cond_2_val (- (+ (* _for_it_13 (- kfdia kidia) (+ klev (- 1))) _for_it_15_1 (* (+ _for_it_14 1) (- kfdia kidia)) 1) kidia)) 1) (= (select _if_cond_2_val (- (+ (* _for_it_13 (- kfdia kidia) (+ klev (- 1))) _for_it_15_0 (* _for_it_14 (- kfdia kidia)) 1) kidia)) 1))) (exists ((_for_it_15_0 Int)(_for_it_15_1 Int)) (and (<= _for_it_15_1 (+ kfdia (- 1))) (<= (+ kidia (- 1)) _for_it_15_1) (= (select _if_cond_3_val (- (+ (* _for_it_13 (- kfdia kidia) (+ klev (- 1))) _for_it_15_0 (* _for_it_14 (- kfdia kidia)) 1) kidia)) 1) (<= _for_it_15_0 (+ kfdia (- 1))) (<= (+ kidia (- 1)) _for_it_15_0) (= (select _if_cond_2_val (- (+ (* _for_it_13 (- kfdia kidia) (+ klev (- 1))) _for_it_15_1 (* (+ _for_it_14 1) (- kfdia kidia)) 1) kidia)) 1) (= (select _if_cond_2_val (- (+ (* _for_it_13 (- kfdia kidia) (+ klev (- 1))) _for_it_15_0 (* _for_it_14 (- kfdia kidia)) 1) kidia)) 1))) (exists ((_for_it_15_0 Int)(_for_it_15_1 Int)) (and (<= _for_it_15_1 (+ kfdia (- 1))) (<= (+ kidia (- 1)) _for_it_15_1) (= _for_it_15_0 _for_it_15_1) (= (select _if_cond_3_val (- (+ (* _for_it_13 (- kfdia kidia) (+ klev (- 1))) _for_it_15_0 (* _for_it_14 (- kfdia kidia)) 1) kidia)) 1) (<= _for_it_15_0 (+ kfdia (- 1))) (<= (+ kidia (- 1)) _for_it_15_0) (= (select _if_cond_2_val (- (+ (* _for_it_13 (- kfdia kidia) (+ klev (- 1))) _for_it_15_1 (* (+ _for_it_14 1) (- kfdia kidia)) 1) kidia)) 1) (= (select _if_cond_2_val (- (+ (* _for_it_13 (- kfdia kidia) (+ klev (- 1))) _for_it_15_0 (* _for_it_14 (- kfdia kidia)) 1) kidia)) 1) (= _for_it_14 (+ _for_it_14 1)) (= (select _if_cond_3_val (- (+ (* _for_it_13 (- kfdia kidia) (+ klev (- 1))) _for_it_15_1 (* (+ _for_it_14 1) (- kfdia kidia)) 1) kidia)) 1))) (exists ((_for_it_15_0 Int)(_for_it_15_1 Int)) (and (= (select _if_cond_4_val (- (+ (* _for_it_13 (- kfdia kidia) (+ klev (- 1))) _for_it_15_1 (* (+ _for_it_14 1) (- kfdia kidia)) 1) kidia)) 1) (<= _for_it_15_1 (+ kfdia (- 1))) (<= (+ kidia (- 1)) _for_it_15_1) (= _for_it_15_0 _for_it_15_1) (= (select _if_cond_3_val (- (+ (* _for_it_13 (- kfdia kidia) (+ klev (- 1))) _for_it_15_0 (* _for_it_14 (- kfdia kidia)) 1) kidia)) 1) (<= _for_it_15_0 (+ kfdia (- 1))) (<= (+ kidia (- 1)) _for_it_15_0) (= (select _if_cond_2_val (- (+ (* _for_it_13 (- kfdia kidia) (+ klev (- 1))) _for_it_15_1 (* (+ _for_it_14 1) (- kfdia kidia)) 1) kidia)) 1) (= (select _if_cond_2_val (- (+ (* _for_it_13 (- kfdia kidia) (+ klev (- 1))) _for_it_15_0 (* _for_it_14 (- kfdia kidia)) 1) kidia)) 1) (= _for_it_14 (+ _for_it_14 1)))) (exists ((_for_it_15_0 Int)(_for_it_15_1 Int)) (and (<= _for_it_15_1 (+ kfdia (- 1))) (<= (+ kidia (- 1)) _for_it_15_1) (= (- (+ (* _for_it_13 (- kfdia kidia) (+ klev (- 1))) _for_it_15_0 (* _for_it_14 (- kfdia kidia)) 1) kidia) (- (+ (* _for_it_13 (- kfdia kidia) (+ klev (- 1))) _for_it_15_1 (* (+ _for_it_14 1) (- kfdia kidia)) 1) kidia)) (<= _for_it_15_0 (+ kfdia (- 1))) (<= (+ kidia (- 1)) _for_it_15_0) (= (select _if_cond_2_val (- (+ (* _for_it_13 (- kfdia kidia) (+ klev (- 1))) _for_it_15_1 (* (+ _for_it_14 1) (- kfdia kidia)) 1) kidia)) 1) (= (select _if_cond_2_val (- (+ (* _for_it_13 (- kfdia kidia) (+ klev (- 1))) _for_it_15_0 (* _for_it_14 (- kfdia kidia)) 1) kidia)) 1))) (exists ((_for_it_15_0 Int)(_for_it_15_1 Int)) (and (<= _for_it_15_1 (+ kfdia (- 1))) (<= (+ kidia (- 1)) _for_it_15_1) (<= _for_it_15_0 (+ kfdia (- 1))) (<= (+ kidia (- 1)) _for_it_15_0) (= (select _if_cond_2_val (- (+ (* _for_it_13 (- kfdia kidia) (+ klev (- 1))) _for_it_15_1 (* (+ _for_it_14 1) (- kfdia kidia)) 1) kidia)) 1) (= (select _if_cond_4_val (- (+ (* _for_it_13 (- kfdia kidia) (+ klev (- 1))) _for_it_15_0 (* _for_it_14 (- kfdia kidia)) 1) kidia)) 1) (= (select _if_cond_2_val (- (+ (* _for_it_13 (- kfdia kidia) (+ klev (- 1))) _for_it_15_0 (* _for_it_14 (- kfdia kidia)) 1) kidia)) 1))) (exists ((_for_it_15_0 Int)(_for_it_15_1 Int)) (and (<= _for_it_15_1 (+ kfdia (- 1))) (<= (+ kidia (- 1)) _for_it_15_1) (= _for_it_15_0 _for_it_15_1) (<= _for_it_15_0 (+ kfdia (- 1))) (<= (+ kidia (- 1)) _for_it_15_0) (= (select _if_cond_2_val (- (+ (* _for_it_13 (- kfdia kidia) (+ klev (- 1))) _for_it_15_1 (* (+ _for_it_14 1) (- kfdia kidia)) 1) kidia)) 1) (= (select _if_cond_4_val (- (+ (* _for_it_13 (- kfdia kidia) (+ klev (- 1))) _for_it_15_0 (* _for_it_14 (- kfdia kidia)) 1) kidia)) 1) (= (select _if_cond_2_val (- (+ (* _for_it_13 (- kfdia kidia) (+ klev (- 1))) _for_it_15_0 (* _for_it_14 (- kfdia kidia)) 1) kidia)) 1) (= _for_it_14 (+ _for_it_14 1)) (= (select _if_cond_3_val (- (+ (* _for_it_13 (- kfdia kidia) (+ klev (- 1))) _for_it_15_1 (* (+ _for_it_14 1) (- kfdia kidia)) 1) kidia)) 1))) (exists ((_for_it_15_0 Int)(_for_it_15_1 Int)) (and (= (select _if_cond_4_val (- (+ (* _for_it_13 (- kfdia kidia) (+ klev (- 1))) _for_it_15_1 (* (+ _for_it_14 1) (- kfdia kidia)) 1) kidia)) 1) (<= _for_it_15_1 (+ kfdia (- 1))) (<= (+ kidia (- 1)) _for_it_15_1) (= _for_it_15_0 _for_it_15_1) (<= _for_it_15_0 (+ kfdia (- 1))) (<= (+ kidia (- 1)) _for_it_15_0) (= (select _if_cond_2_val (- (+ (* _for_it_13 (- kfdia kidia) (+ klev (- 1))) _for_it_15_1 (* (+ _for_it_14 1) (- kfdia kidia)) 1) kidia)) 1) (= (select _if_cond_4_val (- (+ (* _for_it_13 (- kfdia kidia) (+ klev (- 1))) _for_it_15_0 (* _for_it_14 (- kfdia kidia)) 1) kidia)) 1) (= (select _if_cond_2_val (- (+ (* _for_it_13 (- kfdia kidia) (+ klev (- 1))) _for_it_15_0 (* _for_it_14 (- kfdia kidia)) 1) kidia)) 1) (= _for_it_14 (+ _for_it_14 1)))) (exists ((_for_it_15_0 Int)(_for_it_15_1 Int)) (and (= _for_it_15_0 (- (+ _for_it_15_1 1) 1)) (= 4 (- (+ _for_it_13 1) 1)) (<= _for_it_15_1 (+ kfdia (- 1))) (<= (+ kidia (- 1)) _for_it_15_1) (<= _for_it_15_0 (+ kfdia (- 1))) (<= (+ kidia (- 1)) _for_it_15_0) (= _for_it_14 (- (+ _for_it_14 2) 1)) (= (select _if_cond_2_val (- (+ (* _for_it_13 (- kfdia kidia) (+ klev (- 1))) _for_it_15_0 (* _for_it_14 (- kfdia kidia)) 1) kidia)) 1))) (exists ((_for_it_15_0 Int)(_for_it_15_1 Int)) (and (= 4 _for_it_13) (<= _for_it_15_1 (+ kfdia (- 1))) (<= (+ kidia (- 1)) _for_it_15_1) (= _for_it_15_0 _for_it_15_1) (<= _for_it_15_0 (+ kfdia (- 1))) (<= (+ kidia (- 1)) _for_it_15_0) (= (select _if_cond_2_val (- (+ (* _for_it_13 (- kfdia kidia) (+ klev (- 1))) _for_it_15_1 (* (+ _for_it_14 1) (- kfdia kidia)) 1) kidia)) 1) (= (select _if_cond_2_val (- (+ (* _for_it_13 (- kfdia kidia) (+ klev (- 1))) _for_it_15_0 (* _for_it_14 (- kfdia kidia)) 1) kidia)) 1) (= _for_it_14 (+ _for_it_14 1)))) (exists ((_for_it_15_0 Int)(_for_it_15_1 Int)) (and (<= _for_it_15_1 (+ kfdia (- 1))) (or (and (= _for_it_13 4) (= _for_it_15_0 _for_it_15_1) (= _for_it_14 (+ _for_it_14 1))) (and (= _for_it_15_0 _for_it_15_1) (= _for_it_14 (+ _for_it_14 1))) (and (= _for_it_15_0 _for_it_15_1) (= _for_it_14 (+ _for_it_14 1)) (= 4 _for_it_13))) (<= (+ kidia (- 1)) _for_it_15_1) (<= _for_it_15_0 (+ kfdia (- 1))) (<= (+ kidia (- 1)) _for_it_15_0) (= (select _if_cond_2_val (- (+ (* _for_it_13 (- kfdia kidia) (+ klev (- 1))) _for_it_15_1 (* (+ _for_it_14 1) (- kfdia kidia)) 1) kidia)) 1) (= (select _if_cond_2_val (- (+ (* _for_it_13 (- kfdia kidia) (+ klev (- 1))) _for_it_15_0 (* _for_it_14 (- kfdia kidia)) 1) kidia)) 1))) (exists ((_for_it_15_0 Int)(_for_it_15_1 Int)) (and (<= _for_it_15_1 (+ kfdia (- 1))) (or (and (= _for_it_15_0 _for_it_15_1) (= _for_it_14 (+ _for_it_14 1))) (and (= _for_it_15_0 _for_it_15_1) (= _for_it_14 (+ _for_it_14 1)) (= 4 _for_it_13))) (<= (+ kidia (- 1)) _for_it_15_1) (<= _for_it_15_0 (+ kfdia (- 1))) (<= (+ kidia (- 1)) _for_it_15_0) (= (select _if_cond_2_val (- (+ (* _for_it_13 (- kfdia kidia) (+ klev (- 1))) _for_it_15_1 (* (+ _for_it_14 1) (- kfdia kidia)) 1) kidia)) 1) (= (select _if_cond_2_val (- (+ (* _for_it_13 (- kfdia kidia) (+ klev (- 1))) _for_it_15_0 (* _for_it_14 (- kfdia kidia)) 1) kidia)) 1))) (exists ((_for_it_15_0 Int)(_for_it_15_1 Int)) (and (= _for_it_15_0 (- (+ _for_it_15_1 1) 1)) (<= _for_it_15_1 (+ kfdia (- 1))) (<= (+ kidia (- 1)) _for_it_15_1) (= _for_it_13 (- (+ _for_it_13 1) 1)) (<= _for_it_15_0 (+ kfdia (- 1))) (<= (+ kidia (- 1)) _for_it_15_0) (= _for_it_14 (- (+ _for_it_14 2) 1)) (= (select _if_cond_2_val (- (+ (* _for_it_13 (- kfdia kidia) (+ klev (- 1))) _for_it_15_0 (* _for_it_14 (- kfdia kidia)) 1) kidia)) 1))) (exists ((_for_it_15_0 Int)(_for_it_15_1 Int)) (and (<= _for_it_15_1 (+ kfdia (- 1))) (or (and (= _for_it_13 4) (= _for_it_15_0 _for_it_15_1) (= _for_it_14 (+ _for_it_14 1))) (and (= _for_it_15_0 _for_it_15_1) (= _for_it_14 (+ _for_it_14 1)))) (<= (+ kidia (- 1)) _for_it_15_1) (<= _for_it_15_0 (+ kfdia (- 1))) (<= (+ kidia (- 1)) _for_it_15_0) (= (select _if_cond_2_val (- (+ (* _for_it_13 (- kfdia kidia) (+ klev (- 1))) _for_it_15_1 (* (+ _for_it_14 1) (- kfdia kidia)) 1) kidia)) 1) (= (select _if_cond_2_val (- (+ (* _for_it_13 (- kfdia kidia) (+ klev (- 1))) _for_it_15_0 (* _for_it_14 (- kfdia kidia)) 1) kidia)) 1))) (exists ((_for_it_15_0 Int)(_for_it_15_1 Int)) (and (<= _for_it_15_1 (+ kfdia (- 1))) (<= (+ kidia (- 1)) _for_it_15_1) (= _for_it_15_0 _for_it_15_1) (<= _for_it_15_0 (+ kfdia (- 1))) (<= (+ kidia (- 1)) _for_it_15_0) (= (select _if_cond_2_val (- (+ (* _for_it_13 (- kfdia kidia) (+ klev (- 1))) _for_it_15_1 (* (+ _for_it_14 1) (- kfdia kidia)) 1) kidia)) 1) (= (select _if_cond_2_val (- (+ (* _for_it_13 (- kfdia kidia) (+ klev (- 1))) _for_it_15_0 (* _for_it_14 (- kfdia kidia)) 1) kidia)) 1) (= _for_it_14 (+ _for_it_14 1)))) (exists ((_for_it_15_0 Int)(_for_it_15_1 Int)) (and (<= _for_it_15_1 (+ kfdia (- 1))) (<= (+ kidia (- 1)) _for_it_15_1) (= (- (+ (* _for_it_13 (- kfdia kidia) (+ klev (- 1))) _for_it_15_0 (* _for_it_14 (- kfdia kidia)) 1) kidia) (- (+ (* _for_it_13 (- kfdia kidia) (+ klev (- 1))) _for_it_15_1 (* (+ _for_it_14 1) (- kfdia kidia)) 1) kidia)) (<= _for_it_15_0 (+ kfdia (- 1))) (<= (+ kidia (- 1)) _for_it_15_0))) (exists ((_for_it_15_0 Int)(_for_it_15_1 Int)) (and (<= _for_it_15_1 (+ kfdia (- 1))) (<= (+ kidia (- 1)) _for_it_15_1) (= (- (+ _for_it_15_0 1) 1) _for_it_15_1) (= (- (+ _for_it_14 1) 1) (+ _for_it_14 1)) (= (- (+ _for_it_13 1) 1) 4) (<= _for_it_15_0 (+ kfdia (- 1))) (<= (+ kidia (- 1)) _for_it_15_0) (= (select _if_cond_2_val (- (+ (* _for_it_13 (- kfdia kidia) (+ klev (- 1))) _for_it_15_1 (* (+ _for_it_14 1) (- kfdia kidia)) 1) kidia)) 1))) (exists ((_for_it_15_0 Int)(_for_it_15_1 Int)) (and (<= _for_it_15_1 (+ kfdia (- 1))) (<= (+ kidia (- 1)) _for_it_15_1) (= (- (+ _for_it_15_0 1) 1) _for_it_15_1) (= (- (+ _for_it_14 1) 1) (+ _for_it_14 1)) (<= _for_it_15_0 (+ kfdia (- 1))) (<= (+ kidia (- 1)) _for_it_15_0) (= (- (+ _for_it_13 1) 1) _for_it_13) (= (select _if_cond_2_val (- (+ (* _for_it_13 (- kfdia kidia) (+ klev (- 1))) _for_it_15_1 (* (+ _for_it_14 1) (- kfdia kidia)) 1) kidia)) 1)))))
      (<= kidia (+ kfdia (- 1)))
      (<= 1 (+ klev (- 1)))
      (<= (+ _for_it_14 1) (+ klev (- 1)))
      (<= 0 _for_it_14)
    )
    false
  )
))

(check-sat)